jpf-symbc-bounded/src/examples/symbolicheap/bounded/bounddb/LinkedList-02.cnf
p cnf 188 254               
-2 -1 -23 0
23 -27 0
-1 24 0
-2 24 0
1 2 -24 0
-24 -3 -25 0
25 -27 0
3 24 -26 0
26 -27 0
-7 -6 -28 0
-10 -9 -30 0
30 -34 0
-9 31 0
-10 31 0
9 10 -31 0
-31 -11 -32 0
32 -34 0
11 31 -33 0
33 -34 0
34 -40 0
-13 -12 -35 0
35 -39 0
-12 36 0
-13 36 0
12 13 -36 0
-36 -14 -37 0
37 -39 0
14 36 -38 0
38 -39 0
39 -40 0
-18 -17 -41 0
-21 -20 -43 0
43 -45 0
20 21 -44 0
44 -45 0
-6 29 0
-7 29 0
6 7 -29 0
-4 -29 46 0
-46 48 0
-5 -8 47 0
-47 48 0
-48 -72 0
-17 42 0
-18 42 0
17 18 -42 0
-15 -42 49 0
-49 51 0
-16 -19 50 0
-50 51 0
-51 -55 0
15 42 -52 0
52 -54 0
16 19 -53 0
53 -54 0
54 -55 0
55 -71 0
3 -58 0
22 -58 0
-3 -22 58 0
-58 -70 0
-58 68 0
2 -57 0
22 -57 0
-2 -22 57 0
-7 60 0
-18 60 0
-57 -60 65 0
-65 68 0
-68 57 -69 0
69 -70 0
70 -71 0
71 -72 0
72 -83 0
4 29 -73 0
73 -75 0
5 8 -74 0
74 -75 0
75 -83 0
-20 22 -84 0
84 -86 0
-21 22 -85 0
85 -86 0
-17 -57 178 0
-178 183 0
-19 -58 181 0
-181 183 0
15 -179 0
57 -179 0
16 -182 0
58 -182 0
179 182 -184 0
18 -180 0
57 -180 0
184 180 185 0
-183 -185 186 0
-186 -187 0
-1 -22 56 0
58 57 87 0
-56 -87 88 0
-88 -177 0
-6 -57 89 0
-89 94 0
-8 -58 92 0
-92 94 0
4 -90 0
57 -90 0
5 -93 0
58 -93 0
-5 -58 93 0
90 93 -95 0
7 -91 0
57 -91 0
-7 -57 91 0
95 91 96 0
-94 -96 97 0
-97 -153 0
-57 111 0
-93 111 0
57 93 -111 0
7 4 115 0
-6 -115 116 0
-116 -117 0
18 15 113 0
-17 -113 114 0
-114 -117 0
117 -127 0
4 -119 0
15 -119 0
7 -122 0
16 -122 0
119 122 -124 0
124 -126 0
-4 -17 118 0
-118 123 0
-7 -19 121 0
-121 123 0
-123 -125 0
-4 -18 120 0
-120 -125 0
125 -126 0
126 -127 0
127 -136 0
5 -131 0
18 -131 0
119 131 -133 0
133 -135 0
-6 -15 128 0
-128 132 0
-8 -18 130 0
-130 132 0
-132 -134 0
-7 -15 129 0
-129 -134 0
134 -135 0
135 -136 0
-111 136 -137 0
137 -152 0
-58 112 0
-91 112 0
58 91 -112 0
5 -8 139 0
-139 -140 0
16 -19 138 0
-138 -140 0
140 -145 0
131 -144 0
-5 -15 142 0
-142 -143 0
-5 -17 141 0
-141 -143 0
143 -144 0
144 -145 0
145 -150 0
122 -149 0
-4 -16 147 0
-147 -148 0
-6 -16 146 0
-146 -148 0
148 -149 0
149 -150 0
-112 150 -151 0
151 -152 0
152 -153 0
153 -176 0
20 -154 0
22 -154 0
-20 -22 154 0
-111 -112 -156 0
111 112 -156 0
-112 112 -156 0
-111 112 156 0
111 -112 156 0
112 -112 156 0
111 -157 0
112 -157 0
-111 -112 157 0
-156 157 -158 0
156 -157 -158 0
157 -157 -158 0
-156 -157 158 0
156 157 158 0
-157 157 158 0
-158 -165 0
156 -165 0
-157 160 0
-157 -159 0
156 -159 0
157 -156 159 0
-159 160 0
157 159 -160 0
160 -165 0
158 -156 -160 165 0
-154 165 -169 0
169 -171 0
21 -155 0
22 -155 0
-21 -22 155 0
-158 -166 0
-156 -166 0
160 -166 0
158 156 -160 166 0
-155 166 -170 0
170 -171 0
171 -175 0
156 -158 -160 168 0
-168 -174 0
-156 -158 -160 167 0
-167 -174 0
160 156 -158 164 0
-164 -174 0
160 -156 -158 163 0
-163 -174 0
160 158 156 162 0
-162 -174 0
160 158 -156 161 0
-161 -174 0
-165 154 -172 0
172 -174 0
-166 155 -173 0
173 -174 0
174 -175 0
175 -176 0
176 -177 0
177 -187 0
22 0
27 0
28 0
40 0
41 0
45 0
83 0
86 0
187 0
